NAME : higgs-002-integer.standard.-58119547.tour
COMMENT : Length = -58119547
TYPE : TOUR
DIMENSION : 28
TOUR_SECTION
4
28
27
23
6
1
3
16
12
8
19
21
11
13
2
9
7
17
15
18
20
14
10
24
25
26
22
5
-1
EOF
